(set-logic LIA)

(synth-inv inv-f ((conf_0 Int) (conf_1 Int) (conf_2 Int) (conf_3 Int) (conf_4 Int) (x Int) (y Int) (conf_0_0 Int) (conf_1_0 Int) (conf_2_0 Int) (conf_2_1 Int) (conf_2_2 Int) (conf_3_0 Int) (conf_4_0 Int) (conf_4_1 Int) (conf_4_2 Int) (x_0 Int) (x_1 Int) (x_2 Int) (x_3 Int) (y_0 Int) (y_1 Int) (y_2 Int)))

(define-fun pre-f ((conf_0 Int) (conf_1 Int) (conf_2 Int) (conf_3 Int) (conf_4 Int) (x Int) (y Int) (conf_0_0 Int) (conf_1_0 Int) (conf_2_0 Int) (conf_2_1 Int) (conf_2_2 Int) (conf_3_0 Int) (conf_4_0 Int) (conf_4_1 Int) (conf_4_2 Int) (x_0 Int) (x_1 Int) (x_2 Int) (x_3 Int) (y_0 Int) (y_1 Int) (y_2 Int)) Bool
    (and (= conf_0 conf_0_0) (= conf_1 conf_1_0) (= conf_2 conf_2_0) (= conf_3 conf_3_0) (= conf_4 conf_4_0) (= x x_1) (= conf_0_0 7) (= conf_1_0 3) (= conf_2_0 9) (= conf_3_0 9) (= conf_4_0 6) (= x_1 (- 50))))
(define-fun trans-f ((conf_0 Int) (conf_1 Int) (conf_2 Int) (conf_3 Int) (conf_4 Int) (x Int) (y Int) (conf_0_0 Int) (conf_1_0 Int) (conf_2_0 Int) (conf_2_1 Int) (conf_2_2 Int) (conf_3_0 Int) (conf_4_0 Int) (conf_4_1 Int) (conf_4_2 Int) (x_0 Int) (x_1 Int) (x_2 Int) (x_3 Int) (y_0 Int) (y_1 Int) (y_2 Int) (conf_0! Int) (conf_1! Int) (conf_2! Int) (conf_3! Int) (conf_4! Int) (x! Int) (y! Int) (conf_0_0! Int) (conf_1_0! Int) (conf_2_0! Int) (conf_2_1! Int) (conf_2_2! Int) (conf_3_0! Int) (conf_4_0! Int) (conf_4_1! Int) (conf_4_2! Int) (x_0! Int) (x_1! Int) (x_2! Int) (x_3! Int) (y_0! Int) (y_1! Int) (y_2! Int)) Bool
    (or (and (= conf_2_1 conf_2) (= conf_4_1 conf_4) (= x_2 x) (= y_1 y) (= conf_2_1 conf_2!) (= conf_4_1 conf_4!) (= x_2 x!) (= y_1 y!) (= conf_0 conf_0!) (= conf_1 conf_1!) (= conf_2 conf_2!) (= conf_3 conf_3!) (= conf_4 conf_4!) (= y y!)) (and (= conf_2_1 conf_2) (= conf_4_1 conf_4) (= x_2 x) (= y_1 y) (< x_2 0) (= x_3 (+ x_2 y_1)) (= conf_4_2 conf_4_1) (= y_2 (+ y_1 1)) (= conf_2_2 conf_2_1) (= conf_2_2 conf_2!) (= conf_4_2 conf_4!) (= x_3 x!) (= y_2 y!) (= conf_0 conf_0_0) (= conf_0! conf_0_0) (= conf_1 conf_1_0) (= conf_1! conf_1_0) (= conf_3 conf_3_0) (= conf_3! conf_3_0))))
(define-fun post-f ((conf_0 Int) (conf_1 Int) (conf_2 Int) (conf_3 Int) (conf_4 Int) (x Int) (y Int) (conf_0_0 Int) (conf_1_0 Int) (conf_2_0 Int) (conf_2_1 Int) (conf_2_2 Int) (conf_3_0 Int) (conf_4_0 Int) (conf_4_1 Int) (conf_4_2 Int) (x_0 Int) (x_1 Int) (x_2 Int) (x_3 Int) (y_0 Int) (y_1 Int) (y_2 Int)) Bool
    (or (not (and (= conf_0 conf_0_0) (= conf_1 conf_1_0) (= conf_2 conf_2_1) (= conf_3 conf_3_0) (= conf_4 conf_4_1) (= x x_2) (= y y_1))) (not (and (not (< x_2 0)) (not (> y_1 0))))))

(inv-constraint inv-f pre-f trans-f post-f)

(check-synth)

